p cnf 653 1212
25 27 32 51 52 0
25 27 32 51 -52 0
25 27 32 -51 52 0
25 27 32 -51 -52 0
25 -27 32 53 54 0
25 -27 32 53 -54 0
25 -27 32 -53 54 0
25 -27 32 -53 -54 0
21 -32 42 55 56 0
21 -32 42 55 -56 0
21 -32 42 -55 56 0
21 -32 42 -55 -56 0
-21 25 -32 57 58 0
-21 25 -32 57 -58 0
-21 25 -32 -57 58 0
-21 25 -32 -57 -58 0
3 37 -42 59 60 0
3 37 -42 59 -60 0
3 37 -42 -59 60 0
3 37 -42 -59 -60 0
1 11 37 61 62 0
1 11 37 61 -62 0
1 11 37 -61 62 0
1 11 37 -61 -62 0
25 37 45 63 64 0
25 37 45 63 -64 0
25 37 45 -63 64 0
25 37 45 -63 -64 0
25 37 -45 65 66 0
25 37 -45 65 -66 0
25 37 -45 -65 66 0
25 37 -45 -65 -66 0
-1 29 -42 67 68 0
-1 29 -42 67 -68 0
-1 29 -42 -67 68 0
-1 29 -42 -67 -68 0
2 11 -29 69 70 0
2 11 -29 69 -70 0
2 11 -29 -69 70 0
2 11 -29 -69 -70 0
2 22 -42 71 72 0
2 22 -42 71 -72 0
2 22 -42 -71 72 0
2 22 -42 -71 -72 0
2 -11 -22 73 74 0
2 -11 -22 73 -74 0
2 -11 -22 -73 74 0
2 -11 -22 -73 -74 0
-2 -3 -29 75 76 0
-2 -3 -29 75 -76 0
-2 -3 -29 -75 76 0
-2 -3 -29 -75 -76 0
-3 -11 46 77 78 0
-3 -11 46 77 -78 0
-3 -11 46 -77 78 0
-3 -11 46 -77 -78 0
-3 -29 -46 79 80 0
-3 -29 -46 79 -80 0
-3 -29 -46 -79 80 0
-3 -29 -46 -79 -80 0
-11 -29 -36 81 82 0
-11 -29 -36 81 -82 0
-11 -29 -36 -81 82 0
-11 -29 -36 -81 -82 0
6 34 42 83 84 0
6 34 42 83 -84 0
6 34 42 -83 84 0
6 34 42 -83 -84 0
20 34 -42 85 86 0
20 34 -42 85 -86 0
20 34 -42 -85 86 0
20 34 -42 -85 -86 0
6 -20 26 87 88 0
6 -20 26 87 -88 0
6 -20 26 -87 88 0
6 -20 26 -87 -88 0
6 11 -20 89 90 0
6 11 -20 89 -90 0
6 11 -20 -89 90 0
6 11 -20 -89 -90 0
6 -8 -20 91 92 0
6 -8 -20 91 -92 0
6 -8 -20 -91 92 0
6 -8 -20 -91 -92 0
6 -20 34 93 94 0
6 -20 34 93 -94 0
6 -20 34 -93 94 0
6 -20 34 -93 -94 0
27 44 50 95 96 0
27 44 50 95 -96 0
27 44 50 -95 96 0
27 44 50 -95 -96 0
27 35 44 97 98 0
27 35 44 97 -98 0
27 35 44 -97 98 0
27 35 44 -97 -98 0
-27 40 44 99 100 0
-27 40 44 99 -100 0
-27 40 44 -99 100 0
-27 40 44 -99 -100 0
2 35 44 101 102 0
2 35 44 101 -102 0
2 35 44 -101 102 0
2 35 44 -101 -102 0
-2 36 44 103 104 0
-2 36 44 103 -104 0
-2 36 44 -103 104 0
-2 36 44 -103 -104 0
21 -34 36 105 106 0
21 -34 36 105 -106 0
21 -34 36 -105 106 0
21 -34 36 -105 -106 0
-21 27 -44 107 108 0
-21 27 -44 107 -108 0
-21 27 -44 -107 108 0
-21 27 -44 -107 -108 0
-21 36 -44 109 110 0
-21 36 -44 109 -110 0
-21 36 -44 -109 110 0
-21 36 -44 -109 -110 0
-27 -34 35 111 112 0
-27 -34 35 111 -112 0
-27 -34 35 -111 112 0
-27 -34 35 -111 -112 0
-34 -35 45 113 114 0
-34 -35 45 113 -114 0
-34 -35 45 -113 114 0
-34 -35 45 -113 -114 0
6 -35 36 115 116 0
6 -35 36 115 -116 0
6 -35 36 -115 116 0
6 -35 36 -115 -116 0
-15 -35 -45 117 118 0
-15 -35 -45 117 -118 0
-15 -35 -45 -117 118 0
-15 -35 -45 -117 -118 0
-12 32 43 119 120 0
-12 32 43 119 -120 0
-12 32 43 -119 120 0
-12 32 43 -119 -120 0
-12 32 -43 121 122 0
-12 32 -43 121 -122 0
-12 32 -43 -121 122 0
-12 32 -43 -121 -122 0
6 -12 -32 123 124 0
6 -12 -32 123 -124 0
6 -12 -32 -123 124 0
6 -12 -32 -123 -124 0
-25 -36 50 125 126 0
-25 -36 50 125 -126 0
-25 -36 50 -125 126 0
-25 -36 50 -125 -126 0
6 -25 -50 127 128 0
6 -25 -50 127 -128 0
6 -25 -50 -127 128 0
6 -25 -50 -127 -128 0
-25 -44 -50 129 130 0
-25 -44 -50 129 -130 0
-25 -44 -50 -129 130 0
-25 -44 -50 -129 -130 0
-15 -25 -44 131 132 0
-15 -25 -44 131 -132 0
-15 -25 -44 -131 132 0
-15 -25 -44 -131 -132 0
-25 -48 -50 133 134 0
-25 -48 -50 133 -134 0
-25 -48 -50 -133 134 0
-25 -48 -50 -133 -134 0
-25 37 43 135 136 0
-25 37 43 135 -136 0
-25 37 43 -135 136 0
-25 37 43 -135 -136 0
-6 37 -43 137 138 0
-6 37 -43 137 -138 0
-6 37 -43 -137 138 0
-6 37 -43 -137 -138 0
3 9 50 139 140 0
3 9 50 139 -140 0
3 9 50 -139 140 0
3 9 50 -139 -140 0
3 9 39 141 142 0
3 9 39 141 -142 0
3 9 39 -141 142 0
3 9 39 -141 -142 0
3 9 -50 143 144 0
3 9 -50 143 -144 0
3 9 -50 -143 144 0
3 9 -50 -143 -144 0
3 11 -37 145 146 0
3 11 -37 145 -146 0
3 11 -37 -145 146 0
3 11 -37 -145 -146 0
-9 -11 49 147 148 0
-9 -11 49 147 -148 0
-9 -11 49 -147 148 0
-9 -11 49 -147 -148 0
3 8 42 149 150 0
3 8 42 149 -150 0
3 8 42 -149 150 0
3 8 42 -149 -150 0
8 -42 -49 151 152 0
8 -42 -49 151 -152 0
8 -42 -49 -151 152 0
8 -42 -49 -151 -152 0
3 -8 -9 153 154 0
3 -8 -9 153 -154 0
3 -8 -9 -153 154 0
3 -8 -9 -153 -154 0
3 -8 -50 155 156 0
3 -8 -50 155 -156 0
3 -8 -50 -155 156 0
3 -8 -50 -155 -156 0
-3 5 -12 157 158 0
-3 5 -12 157 -158 0
-3 5 -12 -157 158 0
-3 5 -12 -157 -158 0
-3 7 -12 159 160 0
-3 7 -12 159 -160 0
-3 7 -12 -159 160 0
-3 7 -12 -159 -160 0
-12 13 -32 161 162 0
-12 13 -32 161 -162 0
-12 13 -32 -161 162 0
-12 13 -32 -161 -162 0
-7 -12 13 163 164 0
-7 -12 13 163 -164 0
-7 -12 13 -163 164 0
-7 -12 13 -163 -164 0
-3 -12 -13 165 166 0
-3 -12 -13 165 -166 0
-3 -12 -13 -165 166 0
-3 -12 -13 -165 -166 0
-31 -37 38 167 168 0
-31 -37 38 167 -168 0
-31 -37 38 -167 168 0
-31 -37 38 -167 -168 0
12 -31 -37 169 170 0
12 -31 -37 169 -170 0
12 -31 -37 -169 170 0
12 -31 -37 -169 -170 0
8 12 -38 171 172 0
8 12 -38 171 -172 0
8 12 -38 -171 172 0
8 12 -38 -171 -172 0
-23 -38 49 173 174 0
-23 -38 49 173 -174 0
-23 -38 49 -173 174 0
-23 -38 49 -173 -174 0
12 -31 -49 175 176 0
12 -31 -49 175 -176 0
12 -31 -49 -175 176 0
12 -31 -49 -175 -176 0
-2 -23 -37 177 178 0
-2 -23 -37 177 -178 0
-2 -23 -37 -177 178 0
-2 -23 -37 -177 -178 0
-10 12 -38 179 180 0
-10 12 -38 179 -180 0
-10 12 -38 -179 180 0
-10 12 -38 -179 -180 0
-5 -31 -38 181 182 0
-5 -31 -38 181 -182 0
-5 -31 -38 -181 182 0
-5 -31 -38 -181 -182 0
22 24 42 183 184 0
22 24 42 183 -184 0
22 24 42 -183 184 0
22 24 42 -183 -184 0
22 -24 46 185 186 0
22 -24 46 185 -186 0
22 -24 46 -185 186 0
22 -24 46 -185 -186 0
34 -37 -46 187 188 0
34 -37 -46 187 -188 0
34 -37 -46 -187 188 0
34 -37 -46 -187 -188 0
2 31 34 189 190 0
2 31 34 189 -190 0
2 31 34 -189 190 0
2 31 34 -189 -190 0
-2 22 31 191 192 0
-2 22 31 191 -192 0
-2 22 31 -191 192 0
-2 22 31 -191 -192 0
8 26 45 193 194 0
8 26 45 193 -194 0
8 26 45 -193 194 0
8 26 45 -193 -194 0
26 -42 -45 195 196 0
26 -42 -45 195 -196 0
26 -42 -45 -195 196 0
26 -42 -45 -195 -196 0
8 -29 -42 197 198 0
8 -29 -42 197 -198 0
8 -29 -42 -197 198 0
8 -29 -42 -197 -198 0
22 -29 -42 199 200 0
22 -29 -42 199 -200 0
22 -29 -42 -199 200 0
22 -29 -42 -199 -200 0
11 26 31 201 202 0
11 26 31 201 -202 0
11 26 31 -201 202 0
11 26 31 -201 -202 0
-22 26 43 203 204 0
-22 26 43 203 -204 0
-22 26 43 -203 204 0
-22 26 43 -203 -204 0
31 34 43 205 206 0
31 34 43 205 -206 0
31 34 43 -205 206 0
31 34 43 -205 -206 0
21 31 34 207 208 0
21 31 34 207 -208 0
21 31 34 -207 208 0
21 31 34 -207 -208 0
-21 31 -43 209 210 0
-21 31 -43 209 -210 0
-21 31 -43 -209 210 0
-21 31 -43 -209 -210 0
14 23 40 211 212 0
14 23 40 211 -212 0
14 23 40 -211 212 0
14 23 40 -211 -212 0
-22 35 40 213 214 0
-22 35 40 213 -214 0
-22 35 40 -213 214 0
-22 35 40 -213 -214 0
-22 23 40 215 216 0
-22 23 40 215 -216 0
-22 23 40 -215 216 0
-22 23 40 -215 -216 0
-14 23 -34 217 218 0
-14 23 -34 217 -218 0
-14 23 -34 -217 218 0
-14 23 -34 -217 -218 0
33 -34 40 219 220 0
33 -34 40 219 -220 0
33 -34 40 -219 220 0
33 -34 40 -219 -220 0
-23 -33 40 221 222 0
-23 -33 40 221 -222 0
-23 -33 40 -221 222 0
-23 -33 40 -221 -222 0
35 41 -46 223 224 0
35 41 -46 223 -224 0
35 41 -46 -223 224 0
35 41 -46 -223 -224 0
-12 41 -46 225 226 0
-12 41 -46 225 -226 0
-12 41 -46 -225 226 0
-12 41 -46 -225 -226 0
27 -41 -46 227 228 0
27 -41 -46 227 -228 0
27 -41 -46 -227 228 0
27 -41 -46 -227 -228 0
-27 32 -46 229 230 0
-27 32 -46 229 -230 0
-27 32 -46 -229 230 0
-27 32 -46 -229 -230 0
-32 -40 -41 231 232 0
-32 -40 -41 231 -232 0
-32 -40 -41 -231 232 0
-32 -40 -41 -231 -232 0
-3 -35 -46 233 234 0
-3 -35 -46 233 -234 0
-3 -35 -46 -233 234 0
-3 -35 -46 -233 -234 0
21 24 46 235 236 0
21 24 46 235 -236 0
21 24 46 -235 236 0
21 24 46 -235 -236 0
21 -24 46 237 238 0
21 -24 46 237 -238 0
21 -24 46 -237 238 0
21 -24 46 -237 -238 0
21 -37 46 239 240 0
21 -37 46 239 -240 0
21 -37 46 -239 240 0
21 -37 46 -239 -240 0
13 -34 46 241 242 0
13 -34 46 241 -242 0
13 -34 46 -241 242 0
13 -34 46 -241 -242 0
4 -21 -24 243 244 0
4 -21 -24 243 -244 0
4 -21 -24 -243 244 0
4 -21 -24 -243 -244 0
-4 18 -24 245 246 0
-4 18 -24 245 -246 0
-4 18 -24 -245 246 0
-4 18 -24 -245 -246 0
-13 -24 42 247 248 0
-13 -24 42 247 -248 0
-13 -24 42 -247 248 0
-13 -24 42 -247 -248 0
-13 -21 -24 249 250 0
-13 -21 -24 249 -250 0
-13 -21 -24 -249 250 0
-13 -21 -24 -249 -250 0
-13 -24 -28 251 252 0
-13 -24 -28 251 -252 0
-13 -24 -28 -251 252 0
-13 -24 -28 -251 -252 0
16 30 -36 253 254 0
16 30 -36 253 -254 0
16 30 -36 -253 254 0
16 30 -36 -253 -254 0
11 17 -30 255 256 0
11 17 -30 255 -256 0
11 17 -30 -255 256 0
11 17 -30 -255 -256 0
-17 24 -36 257 258 0
-17 24 -36 257 -258 0
-17 24 -36 -257 258 0
-17 24 -36 -257 -258 0
-10 16 24 259 260 0
-10 16 24 259 -260 0
-10 16 24 -259 260 0
-10 16 24 -259 -260 0
-11 12 16 261 262 0
-11 12 16 261 -262 0
-11 12 16 -261 262 0
-11 12 16 -261 -262 0
-16 34 -36 263 264 0
-16 34 -36 263 -264 0
-16 34 -36 -263 264 0
-16 34 -36 -263 -264 0
-16 24 -36 265 266 0
-16 24 -36 265 -266 0
-16 24 -36 -265 266 0
-16 24 -36 -265 -266 0
12 46 50 267 268 0
12 46 50 267 -268 0
12 46 50 -267 268 0
12 46 50 -267 -268 0
33 -34 50 269 270 0
33 -34 50 269 -270 0
33 -34 50 -269 270 0
33 -34 50 -269 -270 0
13 29 50 271 272 0
13 29 50 271 -272 0
13 29 50 -271 272 0
13 29 50 -271 -272 0
-13 -33 50 273 274 0
-13 -33 50 273 -274 0
-13 -33 50 -273 274 0
-13 -33 50 -273 -274 0
-29 -46 50 275 276 0
-29 -46 50 275 -276 0
-29 -46 50 -275 276 0
-29 -46 50 -275 -276 0
-13 -40 -43 277 278 0
-13 -40 -43 277 -278 0
-13 -40 -43 -277 278 0
-13 -40 -43 -277 -278 0
-9 39 -50 279 280 0
-9 39 -50 279 -280 0
-9 39 -50 -279 280 0
-9 39 -50 -279 -280 0
-9 -40 43 281 282 0
-9 -40 43 281 -282 0
-9 -40 43 -281 282 0
-9 -40 43 -281 -282 0
-9 16 39 283 284 0
-9 16 39 283 -284 0
-9 16 39 -283 284 0
-9 16 39 -283 -284 0
-7 -9 16 285 286 0
-7 -9 16 285 -286 0
-7 -9 16 -285 286 0
-7 -9 16 -285 -286 0
-9 -16 -40 287 288 0
-9 -16 -40 287 -288 0
-9 -16 -40 -287 288 0
-9 -16 -40 -287 -288 0
-9 -39 -40 289 290 0
-9 -39 -40 289 -290 0
-9 -39 -40 -289 290 0
-9 -39 -40 -289 -290 0
11 -17 24 291 292 0
11 -17 24 291 -292 0
11 -17 24 -291 292 0
11 -17 24 -291 -292 0
-11 -17 -40 293 294 0
-11 -17 -40 293 -294 0
-11 -17 -40 -293 294 0
-11 -17 -40 -293 -294 0
17 32 48 295 296 0
17 32 48 295 -296 0
17 32 48 -295 296 0
17 32 48 -295 -296 0
7 16 -48 297 298 0
7 16 -48 297 -298 0
7 16 -48 -297 298 0
7 16 -48 -297 -298 0
17 32 -48 299 300 0
17 32 -48 299 -300 0
17 32 -48 -299 300 0
17 32 -48 -299 -300 0
-16 17 32 301 302 0
-16 17 32 301 -302 0
-16 17 32 -301 302 0
-16 17 32 -301 -302 0
2 38 43 303 304 0
2 38 43 303 -304 0
2 38 43 -303 304 0
2 38 43 -303 -304 0
2 -32 38 305 306 0
2 -32 38 305 -306 0
2 -32 38 -305 306 0
2 -32 38 -305 -306 0
-2 38 45 307 308 0
-2 38 45 307 -308 0
-2 38 45 -307 308 0
-2 38 45 -307 -308 0
-32 38 -45 309 310 0
-32 38 -45 309 -310 0
-32 38 -45 -309 310 0
-32 38 -45 -309 -310 0
5 -7 24 311 312 0
5 -7 24 311 -312 0
5 -7 24 -311 312 0
5 -7 24 -311 -312 0
1 -7 43 313 314 0
1 -7 43 313 -314 0
1 -7 43 -313 314 0
1 -7 43 -313 -314 0
-5 13 24 315 316 0
-5 13 24 315 -316 0
-5 13 24 -315 316 0
-5 13 24 -315 -316 0
3 -5 -13 317 318 0
3 -5 -13 317 -318 0
3 -5 -13 -317 318 0
3 -5 -13 -317 -318 0
-3 -7 33 319 320 0
-3 -7 33 319 -320 0
-3 -7 33 -319 320 0
-3 -7 33 -319 -320 0
-3 -7 43 321 322 0
-3 -7 43 321 -322 0
-3 -7 43 -321 322 0
-3 -7 43 -321 -322 0
7 47 48 323 324 0
7 47 48 323 -324 0
7 47 48 -323 324 0
7 47 48 -323 -324 0
7 47 -48 325 326 0
7 47 -48 325 -326 0
7 47 -48 -325 326 0
7 47 -48 -325 -326 0
9 24 47 327 328 0
9 24 47 327 -328 0
9 24 47 -327 328 0
9 24 47 -327 -328 0
-24 -43 47 329 330 0
-24 -43 47 329 -330 0
-24 -43 47 -329 330 0
-24 -43 47 -329 -330 0
-14 18 47 331 332 0
-14 18 47 331 -332 0
-14 18 47 -331 332 0
-14 18 47 -331 -332 0
7 29 47 333 334 0
7 29 47 333 -334 0
7 29 47 -333 334 0
7 29 47 -333 -334 0
7 17 26 335 336 0
7 17 26 335 -336 0
7 17 26 -335 336 0
7 17 26 -335 -336 0
22 -26 40 337 338 0
22 -26 40 337 -338 0
22 -26 40 -337 338 0
22 -26 40 -337 -338 0
1 36 45 339 340 0
1 36 45 339 -340 0
1 36 45 -339 340 0
1 36 45 -339 -340 0
1 37 -45 341 342 0
1 37 -45 341 -342 0
1 37 -45 -341 342 0
1 37 -45 -341 -342 0
1 -17 36 343 344 0
1 -17 36 343 -344 0
1 -17 36 -343 344 0
1 -17 36 -343 -344 0
-1 12 36 345 346 0
-1 12 36 345 -346 0
-1 12 36 -345 346 0
-1 12 36 -345 -346 0
-1 -17 36 347 348 0
-1 -17 36 347 -348 0
-1 -17 36 -347 348 0
-1 -17 36 -347 -348 0
22 -26 -50 349 350 0
22 -26 -50 349 -350 0
22 -26 -50 -349 350 0
22 -26 -50 -349 -350 0
15 -26 -36 351 352 0
15 -26 -36 351 -352 0
15 -26 -36 -351 352 0
15 -26 -36 -351 -352 0
15 41 -48 353 354 0
15 41 -48 353 -354 0
15 41 -48 -353 354 0
15 41 -48 -353 -354 0
14 15 -41 355 356 0
14 15 -41 355 -356 0
14 15 -41 -355 356 0
14 15 -41 -355 -356 0
-10 27 -48 357 358 0
-10 27 -48 357 -358 0
-10 27 -48 -357 358 0
-10 27 -48 -357 -358 0
-10 40 -48 359 360 0
-10 40 -48 359 -360 0
-10 40 -48 -359 360 0
-10 40 -48 -359 -360 0
-10 -36 37 361 362 0
-10 -36 37 361 -362 0
-10 -36 37 -361 362 0
-10 -36 37 -361 -362 0
-10 -37 -48 363 364 0
-10 -37 -48 363 -364 0
-10 -37 -48 -363 364 0
-10 -37 -48 -363 -364 0
4 15 22 365 366 0
4 15 22 365 -366 0
4 15 22 -365 366 0
4 15 22 -365 -366 0
-4 -14 15 367 368 0
-4 -14 15 367 -368 0
-4 -14 15 -367 368 0
-4 -14 15 -367 -368 0
-15 17 26 369 370 0
-15 17 26 369 -370 0
-15 17 26 -369 370 0
-15 17 26 -369 -370 0
-15 -26 -36 371 372 0
-15 -26 -36 371 -372 0
-15 -26 -36 -371 372 0
-15 -26 -36 -371 -372 0
-15 -17 -50 373 374 0
-15 -17 -50 373 -374 0
-15 -17 -50 -373 374 0
-15 -17 -50 -373 -374 0
9 25 -38 375 376 0
9 25 -38 375 -376 0
9 25 -38 -375 376 0
9 25 -38 -375 -376 0
9 -11 -38 377 378 0
9 -11 -38 377 -378 0
9 -11 -38 -377 378 0
9 -11 -38 -377 -378 0
9 -26 33 379 380 0
9 -26 33 379 -380 0
9 -26 33 -379 380 0
9 -26 33 -379 -380 0
-26 33 -50 381 382 0
-26 33 -50 381 -382 0
-26 33 -50 -381 382 0
-26 33 -50 -381 -382 0
9 33 -40 383 384 0
9 33 -40 383 -384 0
9 33 -40 -383 384 0
9 33 -40 -383 -384 0
-14 -32 -38 385 386 0
-14 -32 -38 385 -386 0
-14 -32 -38 -385 386 0
-14 -32 -38 -385 -386 0
29 -33 -41 387 388 0
29 -33 -41 387 -388 0
29 -33 -41 -387 388 0
29 -33 -41 -387 -388 0
14 -33 -41 389 390 0
14 -33 -41 389 -390 0
14 -33 -41 -389 390 0
14 -33 -41 -389 -390 0
-14 -33 -41 391 392 0
-14 -33 -41 391 -392 0
-14 -33 -41 -391 392 0
-14 -33 -41 -391 -392 0
-22 28 -38 393 394 0
-22 28 -38 393 -394 0
-22 28 -38 -393 394 0
-22 28 -38 -393 -394 0
-27 -28 49 395 396 0
-27 -28 49 395 -396 0
-27 -28 49 -395 396 0
-27 -28 49 -395 -396 0
-28 41 -49 397 398 0
-28 41 -49 397 -398 0
-28 41 -49 -397 398 0
-28 41 -49 -397 -398 0
-27 -28 -41 399 400 0
-27 -28 -41 399 -400 0
-27 -28 -41 -399 400 0
-27 -28 -41 -399 -400 0
4 27 38 401 402 0
4 27 38 401 -402 0
4 27 38 -401 402 0
4 27 38 -401 -402 0
4 25 -38 403 404 0
4 25 -38 403 -404 0
4 25 -38 -403 404 0
4 25 -38 -403 -404 0
22 25 27 405 406 0
22 25 27 405 -406 0
22 25 27 -405 406 0
22 25 27 -405 -406 0
-4 11 25 407 408 0
-4 11 25 407 -408 0
-4 11 25 -407 408 0
-4 11 25 -407 -408 0
8 14 -23 409 410 0
8 14 -23 409 -410 0
8 14 -23 -409 410 0
8 14 -23 -409 -410 0
1 -8 -23 411 412 0
1 -8 -23 411 -412 0
1 -8 -23 -411 412 0
1 -8 -23 -411 -412 0
-1 -23 26 413 414 0
-1 -23 26 413 -414 0
-1 -23 26 -413 414 0
-1 -23 26 -413 -414 0
14 -23 -26 415 416 0
14 -23 -26 415 -416 0
14 -23 -26 -415 416 0
14 -23 -26 -415 -416 0
14 -39 41 417 418 0
14 -39 41 417 -418 0
14 -39 41 -417 418 0
14 -39 41 -417 -418 0
14 23 -41 419 420 0
14 23 -41 419 -420 0
14 23 -41 -419 420 0
14 23 -41 -419 -420 0
-14 20 -22 421 422 0
-14 20 -22 421 -422 0
-14 20 -22 -421 422 0
-14 20 -22 -421 -422 0
-1 20 -22 423 424 0
-1 20 -22 423 -424 0
-1 20 -22 -423 424 0
-1 20 -22 -423 -424 0
11 -20 -22 425 426 0
11 -20 -22 425 -426 0
11 -20 -22 -425 426 0
11 -20 -22 -425 -426 0
-11 -14 -20 427 428 0
-11 -14 -20 427 -428 0
-11 -14 -20 -427 428 0
-11 -14 -20 -427 -428 0
14 -22 45 429 430 0
14 -22 45 429 -430 0
14 -22 45 -429 430 0
14 -22 45 -429 -430 0
5 23 46 431 432 0
5 23 46 431 -432 0
5 23 46 -431 432 0
5 23 46 -431 -432 0
2 5 14 433 434 0
2 5 14 433 -434 0
2 5 14 -433 434 0
2 5 14 -433 -434 0
5 23 34 435 436 0
5 23 34 435 -436 0
5 23 34 -435 436 0
5 23 34 -435 -436 0
-2 5 -34 437 438 0
-2 5 -34 437 -438 0
-2 5 -34 -437 438 0
-2 5 -34 -437 -438 0
6 9 31 439 440 0
6 9 31 439 -440 0
6 9 31 -439 440 0
6 9 31 -439 -440 0
21 -25 -33 441 442 0
21 -25 -33 441 -442 0
21 -25 -33 -441 442 0
21 -25 -33 -441 -442 0
-21 -31 -33 443 444 0
-21 -31 -33 443 -444 0
-21 -31 -33 -443 444 0
-21 -31 -33 -443 -444 0
-9 -25 -33 445 446 0
-9 -25 -33 445 -446 0
-9 -25 -33 -445 446 0
-9 -25 -33 -445 -446 0
-25 -33 -39 447 448 0
-25 -33 -39 447 -448 0
-25 -33 -39 -447 448 0
-25 -33 -39 -447 -448 0
-10 44 -45 449 450 0
-10 44 -45 449 -450 0
-10 44 -45 -449 450 0
-10 44 -45 -449 -450 0
-10 35 -44 451 452 0
-10 35 -44 451 -452 0
-10 35 -44 -451 452 0
-10 35 -44 -451 -452 0
-35 -44 -45 453 454 0
-35 -44 -45 453 -454 0
-35 -44 -45 -453 454 0
-35 -44 -45 -453 -454 0
-10 -19 -45 455 456 0
-10 -19 -45 455 -456 0
-10 -19 -45 -455 456 0
-10 -19 -45 -455 -456 0
10 -19 39 457 458 0
10 -19 39 457 -458 0
10 -19 39 -457 458 0
10 -19 39 -457 -458 0
-4 44 49 459 460 0
-4 44 49 459 -460 0
-4 44 49 -459 460 0
-4 44 49 -459 -460 0
-44 47 49 461 462 0
-44 47 49 461 -462 0
-44 47 49 -461 462 0
-44 47 49 -461 -462 0
-4 -47 49 463 464 0
-4 -47 49 463 -464 0
-4 -47 49 -463 464 0
-4 -47 49 -463 -464 0
-4 10 -49 465 466 0
-4 10 -49 465 -466 0
-4 10 -49 -465 466 0
-4 10 -49 -465 -466 0
-5 18 23 467 468 0
-5 18 23 467 -468 0
-5 18 23 -467 468 0
-5 18 23 -467 -468 0
-1 -6 19 469 470 0
-1 -6 19 469 -470 0
-1 -6 19 -469 470 0
-1 -6 19 -469 -470 0
13 -15 19 471 472 0
13 -15 19 471 -472 0
13 -15 19 -471 472 0
13 -15 19 -471 -472 0
-15 19 39 473 474 0
-15 19 39 473 -474 0
-15 19 39 -473 474 0
-15 19 39 -473 -474 0
-19 31 39 475 476 0
-19 31 39 475 -476 0
-19 31 39 -475 476 0
-19 31 39 -475 -476 0
-19 -31 39 477 478 0
-19 -31 39 477 -478 0
-19 -31 39 -477 478 0
-19 -31 39 -477 -478 0
-5 -6 -19 479 480 0
-5 -6 -19 479 -480 0
-5 -6 -19 -479 480 0
-5 -6 -19 -479 -480 0
17 20 35 481 482 0
17 20 35 481 -482 0
17 20 35 -481 482 0
17 20 35 -481 -482 0
-18 -20 35 483 484 0
-18 -20 35 483 -484 0
-18 -20 35 -483 484 0
-18 -20 35 -483 -484 0
2 -18 45 485 486 0
2 -18 45 485 -486 0
2 -18 45 -485 486 0
2 -18 45 -485 -486 0
-6 -17 -18 487 488 0
-6 -17 -18 487 -488 0
-6 -17 -18 -487 488 0
-6 -17 -18 -487 -488 0
-17 -18 35 489 490 0
-17 -18 35 489 -490 0
-17 -18 35 -489 490 0
-17 -18 35 -489 -490 0
-1 -18 40 491 492 0
-1 -18 40 491 -492 0
-1 -18 40 -491 492 0
-1 -18 40 -491 -492 0
-17 -18 -40 493 494 0
-17 -18 -40 493 -494 0
-17 -18 -40 -493 494 0
-17 -18 -40 -493 -494 0
10 13 39 495 496 0
10 13 39 495 -496 0
10 13 39 -495 496 0
10 13 39 -495 -496 0
10 -13 -20 497 498 0
10 -13 -20 497 -498 0
10 -13 -20 -497 498 0
10 -13 -20 -497 -498 0
-6 36 -39 499 500 0
-6 36 -39 499 -500 0
-6 36 -39 -499 500 0
-6 36 -39 -499 -500 0
-6 -20 26 501 502 0
-6 -20 26 501 -502 0
-6 -20 26 -501 502 0
-6 -20 26 -501 -502 0
5 -7 -39 503 504 0
5 -7 -39 503 -504 0
5 -7 -39 -503 504 0
5 -7 -39 -503 -504 0
5 -6 -26 505 506 0
5 -6 -26 505 -506 0
5 -6 -26 -505 506 0
5 -6 -26 -505 -506 0
-5 30 -39 507 508 0
-5 30 -39 507 -508 0
-5 30 -39 -507 508 0
-5 30 -39 -507 -508 0
-30 -39 41 509 510 0
-30 -39 41 509 -510 0
-30 -39 41 -509 510 0
-30 -39 41 -509 -510 0
10 -30 41 511 512 0
10 -30 41 511 -512 0
10 -30 41 -511 512 0
10 -30 41 -511 -512 0
-5 32 -39 513 514 0
-5 32 -39 513 -514 0
-5 32 -39 -513 514 0
-5 32 -39 -513 -514 0
-6 -32 -39 515 516 0
-6 -32 -39 515 -516 0
-6 -32 -39 -515 516 0
-6 -32 -39 -515 -516 0
7 8 12 517 518 0
7 8 12 517 -518 0
7 8 12 -517 518 0
7 8 12 -517 -518 0
8 12 -18 519 520 0
8 12 -18 519 -520 0
8 12 -18 -519 520 0
8 12 -18 -519 -520 0
1 8 -18 521 522 0
1 8 -18 521 -522 0
1 8 -18 -521 522 0
1 8 -18 -521 -522 0
-15 19 41 523 524 0
-15 19 41 523 -524 0
-15 19 41 -523 524 0
-15 19 41 -523 -524 0
-15 19 -41 525 526 0
-15 19 -41 525 -526 0
-15 19 -41 -525 526 0
-15 19 -41 -525 -526 0
15 -16 19 527 528 0
15 -16 19 527 -528 0
15 -16 19 -527 528 0
15 -16 19 -527 -528 0
10 20 -43 529 530 0
10 20 -43 529 -530 0
10 20 -43 -529 530 0
10 20 -43 -529 -530 0
10 -26 28 531 532 0
10 -26 28 531 -532 0
10 -26 28 -531 532 0
10 -26 28 -531 -532 0
-8 20 28 533 534 0
-8 20 28 533 -534 0
-8 20 28 -533 534 0
-8 20 28 -533 -534 0
-8 28 -40 535 536 0
-8 28 -40 535 -536 0
-8 28 -40 -535 536 0
-8 28 -40 -535 -536 0
-11 23 28 537 538 0
-11 23 28 537 -538 0
-11 23 28 -537 538 0
-11 23 28 -537 -538 0
4 28 -35 539 540 0
4 28 -35 539 -540 0
4 28 -35 -539 540 0
4 28 -35 -539 -540 0
4 28 -43 541 542 0
4 28 -43 541 -542 0
4 28 -43 -541 542 0
4 28 -43 -541 -542 0
-4 28 -42 543 544 0
-4 28 -42 543 -544 0
-4 28 -42 -543 544 0
-4 28 -42 -543 -544 0
20 21 28 545 546 0
20 21 28 545 -546 0
20 21 28 -545 546 0
20 21 28 -545 -546 0
-21 -23 -47 547 548 0
-21 -23 -47 547 -548 0
-21 -23 -47 -547 548 0
-21 -23 -47 -547 -548 0
20 -28 -29 549 550 0
20 -28 -29 549 -550 0
20 -28 -29 -549 550 0
20 -28 -29 -549 -550 0
20 -29 -47 551 552 0
20 -29 -47 551 -552 0
20 -29 -47 -551 552 0
20 -29 -47 -551 -552 0
1 29 -44 553 554 0
1 29 -44 553 -554 0
1 29 -44 -553 554 0
1 29 -44 -553 -554 0
-35 -48 49 555 556 0
-35 -48 49 555 -556 0
-35 -48 49 -555 556 0
-35 -48 49 -555 -556 0
16 30 -49 557 558 0
16 30 -49 557 -558 0
16 30 -49 -557 558 0
16 30 -49 -557 -558 0
16 -30 -35 559 560 0
16 -30 -35 559 -560 0
16 -30 -35 -559 560 0
16 -30 -35 -559 -560 0
-30 46 47 561 562 0
-30 46 47 561 -562 0
-30 46 47 -561 562 0
-30 46 47 -561 -562 0
-30 44 -46 563 564 0
-30 44 -46 563 -564 0
-30 44 -46 -563 564 0
-30 44 -46 -563 -564 0
17 -30 -47 565 566 0
17 -30 -47 565 -566 0
17 -30 -47 -565 566 0
17 -30 -47 -565 -566 0
7 -30 -47 567 568 0
7 -30 -47 567 -568 0
7 -30 -47 -567 568 0
7 -30 -47 -567 -568 0
7 -14 -47 569 570 0
7 -14 -47 569 -570 0
7 -14 -47 -569 570 0
7 -14 -47 -569 -570 0
-7 15 -47 571 572 0
-7 15 -47 571 -572 0
-7 15 -47 -571 572 0
-7 15 -47 -571 -572 0
5 15 -47 573 574 0
5 15 -47 573 -574 0
5 15 -47 -573 574 0
5 15 -47 -573 -574 0
15 -30 -47 575 576 0
15 -30 -47 575 -576 0
15 -30 -47 -575 576 0
15 -30 -47 -575 -576 0
-28 48 -49 577 578 0
-28 48 -49 577 -578 0
-28 48 -49 -577 578 0
-28 48 -49 -577 -578 0
37 39 48 579 580 0
37 39 48 579 -580 0
37 39 48 -579 580 0
37 39 48 -579 -580 0
43 48 -49 581 582 0
43 48 -49 581 -582 0
43 48 -49 -581 582 0
43 48 -49 -581 -582 0
-43 48 -49 583 584 0
-43 48 -49 583 -584 0
-43 48 -49 -583 584 0
-43 48 -49 -583 -584 0
-37 48 50 585 586 0
-37 48 50 585 -586 0
-37 48 50 -585 586 0
-37 48 50 -585 -586 0
-37 48 -49 587 588 0
-37 48 -49 587 -588 0
-37 48 -49 -587 588 0
-37 48 -49 -587 -588 0
-5 -31 48 589 590 0
-5 -31 48 589 -590 0
-5 -31 48 -589 590 0
-5 -31 48 -589 -590 0
27 42 44 591 592 0
27 42 44 591 -592 0
27 42 44 -591 592 0
27 42 44 -591 -592 0
29 42 -44 593 594 0
29 42 -44 593 -594 0
29 42 -44 -593 594 0
29 42 -44 -593 -594 0
-8 29 42 595 596 0
-8 29 42 595 -596 0
-8 29 42 -595 596 0
-8 29 42 -595 -596 0
1 42 -45 597 598 0
1 42 -45 597 -598 0
1 42 -45 -597 598 0
1 42 -45 -597 -598 0
-8 -27 29 599 600 0
-8 -27 29 599 -600 0
-8 -27 29 -599 600 0
-8 -27 29 -599 -600 0
-1 -27 29 601 602 0
-1 -27 29 601 -602 0
-1 -27 29 -601 602 0
-1 -27 29 -601 -602 0
-1 -27 -35 603 604 0
-1 -27 -35 603 -604 0
-1 -27 -35 -603 604 0
-1 -27 -35 -603 -604 0
23 30 45 605 606 0
23 30 45 605 -606 0
23 30 45 -605 606 0
23 30 45 -605 -606 0
19 -23 31 607 608 0
19 -23 31 607 -608 0
19 -23 31 -607 608 0
19 -23 31 -607 -608 0
19 30 -31 609 610 0
19 30 -31 609 -610 0
19 30 -31 -609 610 0
19 30 -31 -609 -610 0
19 30 -31 611 612 0
19 30 -31 611 -612 0
19 30 -31 -611 612 0
19 30 -31 -611 -612 0
4 -19 45 613 614 0
4 -19 45 613 -614 0
4 -19 45 -613 614 0
4 -19 45 -613 -614 0
-4 -28 30 615 616 0
-4 -28 30 615 -616 0
-4 -28 30 -615 616 0
-4 -28 30 -615 -616 0
-2 -28 30 617 618 0
-2 -28 30 617 -618 0
-2 -28 30 -617 618 0
-2 -28 30 -617 -618 0
13 18 30 619 620 0
13 18 30 619 -620 0
13 18 30 -619 620 0
13 18 30 -619 -620 0
17 41 47 621 622 0
17 41 47 621 -622 0
17 41 47 -621 622 0
17 41 47 -621 -622 0
-18 -19 623 624 625 0
-18 -19 623 624 -625 0
-18 -19 623 -624 625 0
-18 -19 623 -624 -625 0
-18 -19 -623 624 625 0
-18 -19 -623 624 -625 0
-18 -19 -623 -624 625 0
-18 -19 -623 -624 -625 0
-8 18 -24 626 627 0
-8 18 -24 626 -627 0
-8 18 -24 -626 627 0
-8 18 -24 -626 -627 0
10 -16 -34 628 629 0
10 -16 -34 628 -629 0
10 -16 -34 -628 629 0
10 -16 -34 -628 -629 0
13 -14 16 630 631 0
13 -14 16 630 -631 0
13 -14 16 -630 631 0
13 -14 16 -630 -631 0
4 38 632 633 634 0
4 38 632 633 -634 0
4 38 632 -633 634 0
4 38 632 -633 -634 0
4 38 -632 633 634 0
4 38 -632 633 -634 0
4 38 -632 -633 634 0
4 38 -632 -633 -634 0
-2 10 -28 635 636 0
-2 10 -28 635 -636 0
-2 10 -28 -635 636 0
-2 10 -28 -635 -636 0
-5 18 38 637 638 0
-5 18 38 637 -638 0
-5 18 38 -637 638 0
-5 18 38 -637 -638 0
33 -43 639 640 641 0
33 -43 639 640 -641 0
33 -43 639 -640 641 0
33 -43 639 -640 -641 0
33 -43 -639 640 641 0
33 -43 -639 640 -641 0
33 -43 -639 -640 641 0
33 -43 -639 -640 -641 0
4 -7 18 642 643 0
4 -7 18 642 -643 0
4 -7 18 -642 643 0
4 -7 18 -642 -643 0
-6 -16 49 644 645 0
-6 -16 49 644 -645 0
-6 -16 49 -644 645 0
-6 -16 49 -644 -645 0
-4 -13 -21 646 647 0
-4 -13 -21 646 -647 0
-4 -13 -21 -646 647 0
-4 -13 -21 -646 -647 0
-16 -19 49 648 649 0
-16 -19 49 648 -649 0
-16 -19 49 -648 649 0
-16 -19 49 -648 -649 0
-2 18 33 650 651 0
-2 18 33 650 -651 0
-2 18 33 -650 651 0
-2 18 33 -650 -651 0
-16 18 21 652 653 0
-16 18 21 652 -653 0
-16 18 21 -652 653 0
-16 18 21 -652 -653 0
